conp full nosymm bfgs opti
title
ASE calculation
end

cell
12.000000  4.000000  4.000000 90.00000 90.00000 90.00000
frac
 Sr core  0.0001900   0.9996500   0.9989700
 Ti core  0.1666900   0.4999900   0.5000800
 O  core  0.0001200   0.5000200   0.4999100
 O  core  0.1666500   0.0007600   0.5003500
 O  core  0.1664800   0.5001700   0.9997900
 Sr core  0.3332700   0.0001900   0.9998800
 Ti core  0.4998800   0.5001600   0.4999500
 O  core  0.3333100   0.5002800   0.5002300
 O  core  0.4999800   0.0003900   0.5005500
 O  core  0.4999700   0.5002300   0.9999300
 Sr core  0.6666600   0.0001700   0.0000100
 Ti core  0.8333200   0.5002200   0.4997600
 O  core  0.6665700   0.5002100   0.4999400
 O  core  0.8335500   0.9998200   0.4994700
 O  core  0.8333600   0.4994800   0.0003600

library buck.lib
time 15
