conp full nosymm bfgs opti
title
ASE calculation
end

cell
12.000000  4.000000  4.000000 90.00000 90.00000 90.00000
frac
 Sr core  0.0000100   0.9996900   0.9998900
 Ti core  0.1668000   0.4998900   0.5001000
 O  core  0.9999800   0.4999900   0.4996000
 O  core  0.1666900   0.0000600   0.4996100
 O  core  0.1667600   0.5003500   0.9999700
 Sr core  0.3333000   0.0000400   0.0002100
 Ti core  0.4998600   0.4999400   0.5000200
 O  core  0.3331900   0.4995800   0.4998200
 O  core  0.5000100   0.9998400   0.5001100
 O  core  0.5000300   0.5001200   0.0007700
 Sr core  0.6666700   0.0001100   0.9996100
 Ti core  0.8332000   0.5003600   0.5002400
 O  core  0.6665100   0.5000600   0.4997900
 O  core  0.8333600   0.9999500   0.4999600
 O  core  0.8331600   0.4997100   0.9998200

library buck.lib
time 15
