conp full nosymm bfgs opti
title
ASE calculation
end

cell
12.000000  4.000000  4.000000 90.00000 90.00000 90.00000
frac
 Sr core  0.0002100   0.9999900   0.9993500
 Ti core  0.1665600   0.5003200   0.5005100
 O  core  0.9999400   0.5006600   0.4997300
 O  core  0.1664900   0.9996100   0.5001800
 O  core  0.1665800   0.5003200   0.0004800
 Sr core  0.3332600   0.9997100   0.9998700
 Ti core  0.5000700   0.4994400   0.4996900
 O  core  0.3332300   0.5001300   0.4996400
 O  core  0.4999900   0.9995900   0.4997300
 O  core  0.4998900   0.5000800   0.9997100
 Sr core  0.6666800   0.0007700   0.0001600
 Ti core  0.8329800   0.4996700   0.4997800
 O  core  0.6666100   0.5000200   0.5001600
 O  core  0.8331900   0.0001100   0.4992600
 O  core  0.8332200   0.5002300   0.0002500

library buck.lib
time 15
