conp full nosymm bfgs opti
title
ASE calculation
end

cell
 6.000000  6.000000 12.000000 90.00000 90.00000 90.00000
frac
 O  core  0.0000000   0.3333300   0.8333300
 O  core  0.6666700   0.6666700   0.0000000
 O  core  0.3333300   0.6666700   0.1666700
 O  core  0.3333300   0.0000000   0.1666700
 O  core  0.3333300   0.3333300   0.1666700
 O  core  0.3333300   0.3333300   0.8333300
 O  core  0.3333300   0.0000000   0.5000000
 O  core  0.6666700   0.0000000   0.0000000
 O  core  0.6666700   0.0000000   0.1666700
 Sr core  0.5000000   0.8333300   0.9166700
 Sr core  0.1666700   0.5000000   0.9166700
 Sr core  0.1666700   0.8333300   0.4166700
 Ti core  0.8333300   0.5000000   0.4166700
 Ti core  0.1666700   0.1666700   0.9166700
 Ti core  0.8333300   0.8333300   0.5833300

library buck.lib
time 15
