conp full nosymm conj opti
title
ASE calculation
end

cell
12.000000  4.000000  4.000000 90.00000 90.00000 90.00000
frac
 Sr core  0.9998500   0.0003600   0.9999900
 Ti core  0.1667100   0.5000300   0.5000500
 O  core  0.0000500   0.5006800   0.5001900
 O  core  0.1665700   0.9998700   0.4997000
 O  core  0.1666000   0.4998500   0.9999100
 Sr core  0.3333700   0.0002900   0.9999800
 Ti core  0.5000600   0.5001900   0.5005800
 O  core  0.3334400   0.4993200   0.5001600
 O  core  0.5000700   0.0005800   0.5006500
 O  core  0.5000400   0.4999800   0.9995000
 Sr core  0.6669800   0.0006500   0.9997000
 Ti core  0.8331800   0.5000100   0.5007300
 O  core  0.6667700   0.4999400   0.5001000
 O  core  0.8334900   0.0001700   0.4998500
 O  core  0.8333400   0.4991700   0.0004200

library buck.lib
stepmx 0.001
switch_stepmx 0.1 gnorm 10
switch_minimiser bfgs gnorm 0.5
