conp full nosymm conj opti
title
ASE calculation
end

cell
 4.000000  6.000000 10.000000 90.00000 90.00000 90.00000
frac
 O  core  0.0000000   0.3333300   0.8000000
 O  core  0.0000000   0.0000000   0.8000000
 O  core  0.5000000   0.6666700   0.6000000
 O  core  0.0000000   0.6666700   0.6000000
 O  core  0.0000000   0.3333300   0.0000000
 O  core  0.0000000   0.6666700   0.8000000
 O  core  0.0000000   0.0000000   0.2000000
 O  core  0.5000000   0.3333300   0.2000000
 O  core  0.0000000   0.0000000   0.0000000
 Sr core  0.7500000   0.1666700   0.9000000
 Sr core  0.2500000   0.1666700   0.9000000
 Sr core  0.2500000   0.1666700   0.1000000
 Ti core  0.7500000   0.1666700   0.7000000
 Ti core  0.2500000   0.1666700   0.5000000
 Ti core  0.2500000   0.1666700   0.7000000

library buck.lib
stepmx 0.001
switch_stepmx 0.1 gnorm 10
