opti conj conp full nosymm
title
ASE calculation
end

cell
 4.000000  6.000000 12.000000 90.00000 90.00000 90.00000
frac
 O  core  0.0000000   0.3333300   0.0000000
 O  core  0.0000000   0.6666700   0.1666700
 O  core  0.5000000   0.6666700   0.3333300
 O  core  0.0000000   0.6666700   0.6666700
 O  core  0.0000000   0.3333300   0.1666700
 O  core  0.0000000   0.6666700   0.8333300
 O  core  0.5000000   0.6666700   0.6666700
 O  core  0.0000000   0.3333300   0.5000000
 O  core  0.0000000   0.0000000   0.5000000
 Sr core  0.7500000   0.5000000   0.2500000
 Sr core  0.7500000   0.5000000   0.9166700
 Sr core  0.7500000   0.8333300   0.7500000
 Ti core  0.7500000   0.8333300   0.0833300
 Ti core  0.2500000   0.5000000   0.9166700
 Ti core  0.2500000   0.1666700   0.2500000

library buck.lib
switch_minimiser bfgs gnorm 0.1
