conp full nosymm bfgs opti
title
ASE calculation
end

cell
 4.000000  8.000000 10.000000 90.00000 90.00000 90.00000
frac
 O  core  0.5000000   0.2500000   0.6000000
 O  core  0.0000000   0.7500000   0.8000000
 O  core  0.5000000   0.5000000   0.8000000
 O  core  0.5000000   0.2500000   0.0000000
 O  core  0.5000000   0.5000000   0.2000000
 O  core  0.0000000   0.5000000   0.2000000
 O  core  0.0000000   0.2500000   0.6000000
 O  core  0.5000000   0.2500000   0.4000000
 O  core  0.5000000   0.5000000   0.4000000
 Sr core  0.2500000   0.8750000   0.5000000
 Sr core  0.2500000   0.1250000   0.9000000
 Sr core  0.2500000   0.6250000   0.9000000
 Ti core  0.7500000   0.8750000   0.7000000
 Ti core  0.7500000   0.3750000   0.1000000
 Ti core  0.2500000   0.1250000   0.5000000

library buck.lib
