conp full nosymm bfgs opti
title
ASE calculation
end

cell
 4.000000  4.000000  8.000000 90.00000 90.00000 90.00000
frac
 O  core  0.0000000   0.5000000   0.2500000
 O  core  0.5000000   0.5000000   0.2500000
 O  core  0.0000000   0.5000000   0.5000000
 O  core  0.5000000   0.0000000   0.5000000
 O  core  0.5000000   0.5000000   0.7500000
 O  core  0.0000000   0.0000000   0.0000000
 O  core  0.0000000   0.0000000   0.5000000
 O  core  0.5000000   0.0000000   0.0000000
 O  core  0.0000000   0.5000000   0.7500000
 Sr core  0.7500000   0.2500000   0.3750000
 Sr core  0.7500000   0.7500000   0.8750000
 Sr core  0.7500000   0.7500000   0.1250000
 Ti core  0.7500000   0.2500000   0.8750000
 Ti core  0.2500000   0.2500000   0.1250000
 Ti core  0.2500000   0.7500000   0.1250000

library buck.lib
time 15
