conp full nosymm conj opti
title
ASE calculation
end

cell
12.000000  4.000000  4.000000 90.00000 90.00000 90.00000
frac
 Sr core  0.9999600   0.9998700   0.0005500
 Ti core  0.1666700   0.5001200   0.5000000
 O  core  0.9998600   0.4999000   0.5005800
 O  core  0.1666800   0.0001700   0.4999800
 O  core  0.1667100   0.5002000   0.9996600
 Sr core  0.3334700   0.0003500   0.0000100
 Ti core  0.5002700   0.4993400   0.4993800
 O  core  0.3333100   0.4997900   0.4996200
 O  core  0.4999800   0.9994400   0.5002000
 O  core  0.5000300   0.5004000   0.0001500
 Sr core  0.6665400   0.9999400   0.9999700
 Ti core  0.8333500   0.4997100   0.4996700
 O  core  0.6665300   0.4997000   0.5000900
 O  core  0.8331500   0.0001000   0.5000500
 O  core  0.8333800   0.5001600   0.0001200

library buck.lib
stepmx 0.001
switch_stepmx 0.1 gnorm 10
switch_minimiser bfgs gnorm 0.5
